p cnf 4 -1
1 2 3 4  0  
5 6 7 8  0  
9 10 11 12  0  
13 14 15 16  0  
-2 -1 0  
-3 -1 0  
-3 -2 0  
-4 -1 0  
-4 -2 0  
-4 -3 0  
-6 -5 0  
-7 -5 0  
-7 -6 0  
-8 -5 0  
-8 -6 0  
-8 -7 0  
-10 -9 0  
-11 -9 0  
-11 -10 0  
-12 -9 0  
-12 -10 0  
-12 -11 0  
-14 -13 0  
-15 -13 0  
-15 -14 0  
-16 -13 0  
-16 -14 0  
-16 -15 0  
1 5 9 13  0  
 2 6 10 14  0  
 3 7 11 15  0  
 4 8 12 16  0  
 -5 -1 0  
-9 -1 0  
-9 -5 0  
-13 -1 0  
-13 -5 0  
-13 -9 0  
-6 -2 0  
-10 -2 0  
-10 -6 0  
-14 -2 0  
-14 -6 0  
-14 -10 0  
-7 -3 0  
-11 -3 0  
-11 -7 0  
-15 -3 0  
-15 -7 0  
-15 -11 0  
-8 -4 0  
-12 -4 0  
-12 -8 0  
-16 -4 0  
-16 -8 0  
-16 -12 0  
-1 -6 0  
-1 -11 0  
-1 -16 0  
-6 -11 0  
-6 -16 0  
-11 -16 0  
-5 -10 0 
-2 -7 0 
-5 -15 0 
-2 -12 0 
-10 -15 0 
-7 -12 0 
-15 -10 0 
-12 -7 0 
 -4 -7 0  
-4 -10 0  
-4 -13 0  
 -3 -6 0  
-3 -9 0  
 -2 -5 0  
 -8 -11 0  
-8 -14 0  
 -7 -10 0  
-7 -13 0  
 -6 -9 0  
 -12 -15 0  
 -11 -14 0  
 -10 -13 0  

